c colouring generated by benchmark framework
p edge 87 406
v 1 0
v 2 5
v 3 10
v 4 3
v 5 0
v 6 1
v 7 1
v 8 3
v 9 1
v 10 3
v 11 0
v 12 1
v 13 2
v 14 2
v 15 1
v 16 0
v 17 10
v 18 1
v 19 4
v 20 4
v 21 5
v 22 1
v 23 6
v 24 4
v 25 10
v 26 6
v 27 8
v 28 3
v 29 0
v 30 5
v 31 9
v 32 6
v 33 2
v 34 7
v 35 2
v 36 9
v 37 5
v 38 10
v 39 2
v 40 7
v 41 9
v 42 7
v 43 0
v 44 3
v 45 1
v 46 0
v 47 10
v 48 5
v 49 0
v 50 2
v 51 0
v 52 3
v 53 2
v 54 10
v 55 2
v 56 0
v 57 0
v 58 0
v 59 6
v 60 1
v 61 2
v 62 7
v 63 6
v 64 1
v 65 6
v 66 1
v 67 3
v 68 2
v 69 1
v 70 9
v 71 9
v 72 1
v 73 6
v 74 10
v 75 0
v 76 6
v 77 10
v 78 9
v 79 7
v 80 2
v 81 6
v 82 0
v 83 8
v 84 3
v 85 6
v 86 7
v 87 9
